c description: Random 3-CNF over 20 variables and 85 clauses
c generator: CNFgen (0.9.2)
c copyright: (C) 2012-2022 Massimo Lauria <massimo.lauria@uniroma1.it>
c url: https://massimolauria.net/cnfgen
c command line: cnfgen --output CNF_4.28/20_bit_85_846.cnf randkcnf 3 20 85
c
p cnf 20 85
-8 10 -16 0
6 17 -18 0
-1 -16 -20 0
3 -8 -16 0
4 13 17 0
6 8 -20 0
2 -11 12 0
4 -16 19 0
11 13 18 0
6 13 14 0
-3 -9 -11 0
6 7 17 0
-2 -6 9 0
1 5 15 0
4 -13 -20 0
11 -12 -16 0
2 11 16 0
2 8 15 0
-1 7 -19 0
-7 -11 -17 0
-5 -11 -13 0
8 -14 -20 0
-6 -8 -15 0
4 -6 17 0
6 18 -20 0
-9 -11 14 0
-2 -11 -14 0
4 -6 20 0
-1 -7 -20 0
-5 6 9 0
-4 -18 19 0
1 -11 17 0
1 -12 -20 0
-7 -11 18 0
-9 -11 13 0
-1 -10 -17 0
-2 -7 -17 0
7 -8 -12 0
-2 -4 10 0
7 8 -15 0
-4 5 7 0
5 8 14 0
-1 6 -12 0
-1 14 -19 0
13 16 20 0
2 5 -20 0
-2 7 20 0
2 -5 -13 0
-10 13 17 0
-3 14 19 0
-5 -13 -17 0
-8 -18 19 0
-8 -17 -20 0
-13 15 -17 0
-8 -15 -19 0
-2 9 -16 0
1 -2 -3 0
2 9 14 0
-5 7 -20 0
2 -3 -18 0
8 11 20 0
-10 -17 18 0
-5 6 10 0
9 14 -18 0
1 -3 13 0
-2 5 8 0
-3 7 8 0
-4 11 13 0
2 -7 -20 0
15 -16 -20 0
2 11 14 0
3 -15 18 0
-8 -17 18 0
5 11 20 0
8 -10 16 0
2 6 10 0
-1 -4 -10 0
-2 6 -14 0
-1 2 -11 0
-9 13 -20 0
-2 12 -16 0
4 -8 15 0
-6 -8 -9 0
-9 16 17 0
-7 -12 13 0
